# Solution for model qis_1000_800_522
# Objective value = 2.9954440459850571e+02
x[0] 0
x[1] 1
x[2] 0
x[3] 0
x[4] 0
x[5] 1
x[6] 0
x[7] 0
x[8] 0
x[9] 0
x[10] 1
x[11] 1
x[12] 1
x[13] 1
x[14] 0
x[15] 1
x[16] 0
x[17] 0
x[18] 0
x[19] 1
x[20] 0
x[21] 1
x[22] 1
x[23] 0
x[24] 0
x[25] 1
x[26] 1
x[27] 0
x[28] 1
x[29] 0
x[30] 1
x[31] 0
x[32] 0
x[33] 0
x[34] 2.4794782534967579e-07
x[35] 1
x[36] 0
x[37] 1
x[38] 1
x[39] 0
x[40] 1
x[41] 0
x[42] 0
x[43] 0
x[44] 1
x[45] 1
x[46] 0
x[47] 1
x[48] 1
x[49] 1
x[50] 1
x[51] 1
x[52] 0
x[53] 0
x[54] 1
x[55] 1
x[56] 0
x[57] 1
x[58] 0
x[59] 0
x[60] 1
x[61] 0
x[62] 1
x[63] 0
x[64] 0
x[65] -2.4666666670161116e-07
x[66] 1
x[67] 1
x[68] 1
x[69] 0
x[70] 1
x[71] 1
x[72] 1
x[73] 0
x[74] 1
x[75] 0
x[76] 0
x[77] 1
x[78] 0
x[79] 1
x[80] 1
x[81] 1
x[82] 0
x[83] 1
x[84] 1
x[85] 1
x[86] 0
x[87] 0
x[88] 1
x[89] 1
x[90] 1
x[91] 1
x[92] 1
x[93] 0
x[94] 1
x[95] 1
x[96] 1
x[97] 0
x[98] 0
x[99] 1
x[100] 1
x[101] 0
x[102] 1
x[103] 1
x[104] 0
x[105] 1
x[106] 1
x[107] 1
x[108] 0
x[109] 1
x[110] 1.0000000205977080e+00
x[111] 1
x[112] 1
x[113] 0
x[114] 0
x[115] 1
x[116] 1
x[117] 0
x[118] 1
x[119] -4.1666666765981653e-08
x[120] 0
x[121] 1
x[122] 1
x[123] 1
x[124] 0
x[125] 1
x[126] 0
x[127] 0
x[128] 0
x[129] 1
x[130] 1
x[131] 0
x[132] 8.3133648848047417e-08
x[133] 1
x[134] 1
x[135] 0
x[136] 0
x[137] 1
x[138] 0
x[139] 0
x[140] 0
x[141] 0
x[142] 0
x[143] 1
x[144] 0
x[145] 0
x[146] 0
x[147] 0
x[148] 1
x[149] 0
x[150] 1
x[151] 1
x[152] 1
x[153] 0
x[154] 0
x[155] 1
x[156] 0
x[157] 1
x[158] 1
x[159] 1
x[160] 0
x[161] 1
x[162] -5.8834506539256364e-08
x[163] 2.4979268784179328e-07
x[164] 0
x[165] 1
x[166] 1
x[167] 0
x[168] -1.2166666824423378e-07
x[169] 0
x[170] 2.4967968681842967e-07
x[171] 0
x[172] 1
x[173] 1
x[174] 1
x[175] 1
x[176] 0
x[177] 0
x[178] 1
x[179] 1
x[180] 1
x[181] 0
x[182] 1
x[183] 0
x[184] 0
x[185] 0.999999752357022
x[186] 0
x[187] 1
x[188] 0
x[189] 1
x[190] 0
x[191] 1.0000001249073860e+00
x[192] 1
x[193] 1
x[194] 0
x[195] 1
x[196] 1
x[197] 1.0000001247749186e+00
x[198] 0
x[199] 1
x[200] 1
x[201] 0
x[202] 0
x[203] 0
x[204] 0
x[205] 1
x[206] 1
x[207] 0
x[208] 1
x[209] 0
x[210] 1
x[211] 0
x[212] 0
x[213] 0
x[214] 0
x[215] 0
x[216] 1
x[217] 1
x[218] 0
x[219] 0
x[220] 1
x[221] 0
x[222] 0
x[223] 0
x[224] 8.3202859526784268e-08
x[225] 1
x[226] 0
x[227] 1
x[228] 0
x[229] 0
x[230] 0
x[231] 0
x[232] 1
x[233] 1
x[234] 1
x[235] 1
x[236] 1
x[237] 0
x[238] 1
x[239] 0
x[240] 1
x[241] 1
x[242] 0
x[243] 0
x[244] 0
x[245] 0
x[246] 1
x[247] 0
x[248] 0
x[249] 1
x[250] 1
x[251] 0
x[252] 0
x[253] 1
x[254] 0
x[255] 0
x[256] 0
x[257] 1
x[258] 0
x[259] 0
x[260] 0
x[261] 0
x[262] 1
x[263] 1
x[264] 0
x[265] 0
x[266] 0
x[267] 0.99999992
x[268] 0
x[269] 1
x[270] 1
x[271] 0
x[272] 0
x[273] 1
x[274] 1
x[275] 1
x[276] 9.9999975000000008e-01
x[277] 0
x[278] 0
x[279] 0
x[280] 0
x[281] 1
x[282] 1
x[283] 0
x[284] 0
x[285] 0
x[286] 1
x[287] 0
x[288] 1
x[289] 0
x[290] 1
x[291] 1
x[292] 1
x[293] 1
x[294] 0
x[295] 0
x[296] 1
x[297] 0
x[298] 1
x[299] 1
x[300] 1
x[301] 1
x[302] 0
x[303] 1
x[304] 1
x[305] 0
x[306] 1
x[307] 1
x[308] 0
x[309] 1
x[310] 0
x[311] 1
x[312] 0
x[313] 0
x[314] 1
x[315] 1
x[316] 1
x[317] 0
x[318] 0
x[319] 0
x[320] 1
x[321] 0
x[322] 1
x[323] 1
x[324] 0
x[325] 0
x[326] 1
x[327] 0
x[328] 1
x[329] 1
x[330] 0
x[331] 1
x[332] 0
x[333] 0
x[334] 1
x[335] -1.2499999955845630e-07
x[336] 1
x[337] 2.4858909182841386e-07
x[338] 0
x[339] 0
x[340] 0
x[341] 0
x[342] 9.9999995492359917e-01
x[343] 0
x[344] 2.4960981156016790e-07
x[345] 0
x[346] 1
x[347] 0
x[348] 0
x[349] 0
x[350] 0
x[351] 0
x[352] 0
x[353] 1
x[354] 0
x[355] 1
x[356] 0
x[357] 1
x[358] 1
x[359] 0
x[360] 1
x[361] 0
x[362] 0
x[363] 0
x[364] 0
x[365] 0
x[366] 0
x[367] 1
x[368] 1
x[369] 0
x[370] 0
x[371] 0
x[372] 0
x[373] 0
x[374] 9.9999991999999949e-01
x[375] 1
x[376] 8.2979927521169955e-08
x[377] 1
x[378] 1
x[379] 0
x[380] -1.2222649834677519e-07
x[381] 1
x[382] 1
x[383] -2.5000000027069023e-07
x[384] 0
x[385] 2.4977753207562522e-07
x[386] 1
x[387] 8.3200843456178532e-08
x[388] 0
x[389] 1.0000001246993357e+00
x[390] 0
x[391] 1
x[392] 0
x[393] 1
x[394] 1
x[395] 0
x[396] 0
x[397] 0
x[398] 1
x[399] 0
x[400] 1
x[401] 0
x[402] 1
x[403] 0
x[404] 1
x[405] 1
x[406] 0
x[407] 0
x[408] 1
x[409] 1
x[410] 1
x[411] 1
x[412] 0
x[413] 1
x[414] 0
x[415] 0
x[416] 1
x[417] 9.9999975333333313e-01
x[418] 0
x[419] 0
x[420] 1
x[421] 1
x[422] 1
x[423] 0
x[424] 0
x[425] 0
x[426] 0
x[427] 1
x[428] 1
x[429] 1
x[430] 0
x[431] 0
x[432] 1
x[433] 1
x[434] 1
x[435] 1
x[436] 1
x[437] 1
x[438] 1
x[439] 0
x[440] 1
x[441] 0
x[442] 1
x[443] 8.3052270661539754e-08
x[444] 0
x[445] 0
x[446] 1
x[447] 1
x[448] 0
x[449] 1
x[450] 1
x[451] 0
x[452] 1
x[453] 0
x[454] 1
x[455] 1
x[456] 0
x[457] 1
x[458] 1
x[459] 1
x[460] 0
x[461] 0
x[462] 0
x[463] 1
x[464] 0
x[465] 1
x[466] 2.4852117559719145e-07
x[467] 1
x[468] 0
x[469] 0
x[470] 0
x[471] 1
x[472] 0
x[473] 0
x[474] 0
x[475] 0
x[476] 0
x[477] 0
x[478] 1
x[479] 0
x[480] 0
x[481] 0
x[482] 0
x[483] 1
x[484] 0
x[485] 0
x[486] 1
x[487] 0
x[488] 0
x[489] 0
x[490] 1
x[491] 0
x[492] 0
x[493] 1
x[494] 1
x[495] 1
x[496] 1
x[497] 1
x[498] 1
x[499] 0
x[500] 0
x[501] 1
x[502] 1
x[503] 1
x[504] 1
x[505] 9.9999970557227758e-01
x[506] 1
x[507] 1
x[508] 0
x[509] 0
x[510] 1.0000002498531808e+00
x[511] 1
x[512] 1
x[513] 0
x[514] 0
x[515] 0
x[516] 1
x[517] 0
x[518] 0
x[519] 1
x[520] 0
x[521] 9.9999991999999960e-01
x[522] 0
x[523] 1
x[524] 0
x[525] 0
x[526] 1
x[527] 1
x[528] 1
x[529] 1
x[530] 0
x[531] 1
x[532] 0
x[533] 1
x[534] 1
x[535] 1
x[536] 2.4956940490238066e-07
x[537] 0
x[538] 0
x[539] 0
x[540] 1
x[541] 1
x[542] 0
x[543] 0
x[544] 0
x[545] 0
x[546] 0
x[547] 1
x[548] 1
x[549] 1.0000001248768637e+00
x[550] 1
x[551] 1
x[552] 1
x[553] 1.0000001248928230e+00
x[554] 1
x[555] 0
x[556] 1
x[557] 1
x[558] 0
x[559] 0
x[560] 1
x[561] 0
x[562] 1
x[563] 0
x[564] 1
x[565] 0
x[566] 1
x[567] 0
x[568] 0
x[569] 1
x[570] 0
x[571] 0
x[572] -2.4651984737122250e-07
x[573] 0
x[574] -2.4999999936881068e-07
x[575] 1
x[576] 1
x[577] 0
x[578] 0
x[579] 1
x[580] 0
x[581] 0
x[582] 0
x[583] 0
x[584] 0
x[585] 1
x[586] 0
x[587] 1
x[588] 1
x[589] 1
x[590] 0
x[591] 1
x[592] 0
x[593] 0
x[594] 1
x[595] 0
x[596] 1
x[597] 1
x[598] 0
x[599] 1
x[600] 0
x[601] 0
x[602] 0
x[603] 0
x[604] 1
x[605] 0
x[606] 1
x[607] 0
x[608] 1
x[609] 0
x[610] 0
x[611] 1
x[612] 0
x[613] 0
x[614] 1
x[615] 1
x[616] 1
x[617] 0
x[618] 1
x[619] 0
x[620] 0
x[621] 1
x[622] 1
x[623] 2.4884722576102956e-07
x[624] 1
x[625] 1
x[626] 1
x[627] 0
x[628] 0
x[629] 1
x[630] 1
x[631] 1
x[632] 1
x[633] 0
x[634] 0
x[635] 1
x[636] 1
x[637] 9.9999975333333313e-01
x[638] 1
x[639] 1
x[640] 1
x[641] 0
x[642] 1
x[643] 1
x[644] 1
x[645] 0
x[646] 1
x[647] 1
x[648] 0
x[649] 0
x[650] 1
x[651] 1
x[652] 1
x[653] 0
x[654] 1
x[655] 1
x[656] 0
x[657] 1
x[658] 1
x[659] 1
x[660] 0
x[661] 1
x[662] 1
x[663] 0
x[664] 1
x[665] 0
x[666] 0
x[667] 0
x[668] 1
x[669] 0
x[670] 0
x[671] 0
x[672] 1
x[673] 0
x[674] 0
x[675] 0
x[676] 0
x[677] 9.9999999999999867e-01
x[678] 1.0000002498406915e+00
x[679] 1
x[680] 0
x[681] 0
x[682] 1
x[683] 1
x[684] 0
x[685] 0
x[686] 0
x[687] 1
x[688] 1
x[689] 0
x[690] 0
x[691] 1
x[692] 1
x[693] 1
x[694] 8.31704829736956e-08
x[695] 1
x[696] 0
x[697] 1
x[698] 0
x[699] 0
x[700] 1
x[701] 0
x[702] 0
x[703] 2.4686559522354835e-07
x[704] 0
x[705] 0
x[706] 1
x[707] -1.75000003914901e-08
x[708] 1
x[709] 1
x[710] 0
x[711] 0
x[712] 0
x[713] 0
x[714] 9.9999992013047379e-01
x[715] 0
x[716] -1.2425085010435732e-07
x[717] 0
x[718] 1
x[719] 0
x[720] 0
x[721] 1
x[722] 1
x[723] 1
x[724] 0
x[725] 1
x[726] 1
x[727] 0
x[728] 1
x[729] 0
x[730] 1
x[731] 0
x[732] 1
x[733] 1
x[734] 1
x[735] 0
x[736] 0
x[737] 0
x[738] 0
x[739] 1
x[740] -2.4999999997936224e-07
x[741] 1
x[742] 0
x[743] 1
x[744] 1
x[745] 1
x[746] 1.0000002498484746e+00
x[747] 1
x[748] 0
x[749] 0
x[750] 1
x[751] 0
x[752] 1
x[753] 1
x[754] 1
x[755] 0
x[756] 0
x[757] 1
x[758] 0
x[759] 0
x[760] 0
x[761] 1
x[762] 0
x[763] 0
x[764] 0
x[765] 1
x[766] -2.4651514118457188e-07
x[767] 1
x[768] 2.4982006707074851e-07
x[769] 0
x[770] 6.2484987633767647e-07
x[771] 1
x[772] 0
x[773] 0
x[774] 1
x[775] 0
x[776] 0
x[777] 1
x[778] 1
x[779] 0
x[780] 1
x[781] 0
x[782] 1
x[783] 1
x[784] 0
x[785] 4.2709846894989388e-07
x[786] 0
x[787] 0
x[788] 1
x[789] 0
x[790] 0
x[791] 1
x[792] 1
x[793] 0
x[794] 1
x[795] 0
x[796] 1
x[797] 1
x[798] 1
x[799] 0
x[800] 0
x[801] 1
x[802] 1
x[803] 0
x[804] 1
x[805] 1
x[806] 1
x[807] 1
x[808] 1
x[809] 0
x[810] 0
x[811] 0
x[812] 1
x[813] 0
x[814] 1
x[815] 0
x[816] 1
x[817] 1
x[818] 0
x[819] 1
x[820] 0
x[821] 1
x[822] 1
x[823] 1
x[824] 1
x[825] 1
x[826] 1
x[827] 0
x[828] 0
x[829] 0
x[830] 0
x[831] 0
x[832] 9.9999937833333274e-01
x[833] 0
x[834] 1
x[835] 1
x[836] 0
x[837] 0
x[838] 0
x[839] 1
x[840] 1
x[841] 1
x[842] 1
x[843] 0
x[844] 0
x[845] 0
x[846] 0
x[847] 0
x[848] 0
x[849] 2.4955349447119138e-07
x[850] 1
x[851] 1
x[852] 0
x[853] 1
x[854] 0
x[855] 0
x[856] 1
x[857] 1
x[858] 0
x[859] 1
x[860] 0
x[861] 1
x[862] 1
x[863] 1
x[864] 0
x[865] 1
x[866] 0
x[867] 1
x[868] 1
x[869] 0
x[870] 1
x[871] 1
x[872] 1
x[873] 1
x[874] 0
x[875] 0
x[876] 1
x[877] 1.0000001245805969e+00
x[878] 0
x[879] 1
x[880] 0
x[881] 1
x[882] 0
x[883] -1.2181418318991914e-07
x[884] 1
x[885] 1
x[886] 0
x[887] 1
x[888] 0
x[889] 1
x[890] 0
x[891] 0
x[892] 0
x[893] 1
x[894] 1
x[895] 0
x[896] 0
x[897] 0
x[898] 0
x[899] 0
x[900] 0
x[901] 0
x[902] 1
x[903] 1
x[904] 0
x[905] 1
x[906] 1.0000002498573373e+00
x[907] 1
x[908] 1
x[909] 0
x[910] 0
x[911] 1
x[912] 1
x[913] 3.0838291514270874e-07
x[914] 0
x[915] 1
x[916] 0
x[917] 0
x[918] 1
x[919] 1
x[920] 1
x[921] 1
x[922] 0
x[923] 0
x[924] 1
x[925] 0
x[926] 0
x[927] 0
x[928] 1
x[929] 1.2470340307564341e-07
x[930] 1
x[931] 0
x[932] 1
x[933] 0
x[934] 1
x[935] 1
x[936] 1
x[937] 1
x[938] 1
x[939] 0
x[940] -1.2166666680201178e-07
x[941] 0
x[942] 0
x[943] 1
x[944] 1
x[945] 0
x[946] 1
x[947] 0
x[948] 9.9999969083333307e-01
x[949] 1
x[950] 0
x[951] 1
x[952] 0
x[953] 1.0000001247316459e+00
x[954] 1
x[955] 1
x[956] 0
x[957] 1
x[958] 1
x[959] 0
x[960] 1
x[961] 0
x[962] 1
x[963] 1
x[964] 0
x[965] 1
x[966] 1
x[967] 1
x[968] 0
x[969] 1
x[970] 0
x[971] 0
x[972] 1
x[973] 1
x[974] 0
x[975] 1
x[976] 1
x[977] 1
x[978] 0
x[979] 0
x[980] 0
x[981] 0.999999753333333
x[982] 0
x[983] 0
x[984] 0
x[985] 0
x[986] 0
x[987] 0
x[988] 1
x[989] 1
x[990] 0
x[991] 0
x[992] 0
x[993] 0
x[994] 0
x[995] 0
x[996] 1
x[997] 1
x[998] 0
x[999] 1
